param n := 60;
param c := 10000
param : V : p w :=
   0	 485	 475
   1	 266	 256
   2	 279	 269
   3	 406	 396
   4	 274	 264
   5	 350	 340
   6	 478	 468
   7	 272	 262
   8	 280	 270
   9	 371	 361
  10	 310	 300
  11	 349	 339
  12	 454	 444
  13	 261	 251
  14	 315	 305
  15	 376	 366
  16	 262	 252
  17	 392	 382
  18	 419	 409
  19	 287	 277
  20	 324	 314
  21	 475	 465
  22	 270	 260
  23	 285	 275
  24	 457	 447
  25	 261	 251
  26	 312	 302
  27	 409	 399
  28	 307	 297
  29	 314	 304
  30	 433	 423
  31	 268	 258
  32	 329	 319
  33	 483	 473
  34	 270	 260
  35	 277	 267
  36	 436	 426
  37	 271	 261
  38	 323	 313
  39	 413	 403
  40	 299	 289
  41	 318	 308
  42	 412	 402
  43	 275	 265
  44	 343	 333
  45	 406	 396
  46	 267	 257
  47	 357	 347
  48	 421	 411
  49	 292	 282
  50	 317	 307
  51	 472	 462
  52	 268	 258
  53	 290	 280
  54	 422	 412
  55	 264	 254
  56	 344	 334
  57	 386	 376
  58	 265	 255
  59	 379	 369
;

set E :=
   0	   2
   0	   4
   0	   6
   0	   7
   0	  10
   0	  12
   0	  13
   0	  16
   0	  17
   0	  19
   0	  20
   0	  22
   0	  27
   0	  29
   0	  36
   0	  37
   0	  38
   0	  39
   0	  40
   0	  41
   0	  43
   0	  44
   0	  45
   0	  46
   0	  47
   0	  48
   0	  49
   0	  50
   0	  54
   0	  55
   0	  57
   1	   6
   1	  11
   1	  12
   1	  14
   1	  15
   1	  18
   1	  19
   1	  20
   1	  23
   1	  26
   1	  29
   1	  35
   1	  36
   1	  40
   1	  43
   1	  44
   1	  49
   1	  50
   1	  51
   1	  54
   1	  59
   2	   4
   2	   5
   2	   6
   2	   7
   2	  10
   2	  13
   2	  14
   2	  20
   2	  22
   2	  23
   2	  24
   2	  26
   2	  29
   2	  34
   2	  37
   2	  40
   2	  43
   2	  47
   2	  50
   2	  56
   2	  58
   3	   6
   3	   9
   3	  10
   3	  12
   3	  15
   3	  16
   3	  17
   3	  18
   3	  19
   3	  23
   3	  26
   3	  29
   3	  30
   3	  32
   3	  34
   3	  35
   3	  36
   3	  39
   3	  40
   3	  41
   3	  43
   3	  44
   3	  47
   3	  51
   3	  53
   3	  54
   3	  56
   3	  57
   3	  58
   4	   5
   4	   8
   4	   9
   4	  10
   4	  11
   4	  18
   4	  21
   4	  23
   4	  25
   4	  26
   4	  30
   4	  31
   4	  37
   4	  43
   4	  44
   4	  47
   4	  48
   4	  49
   4	  52
   4	  53
   4	  54
   5	   6
   5	   7
   5	   9
   5	  11
   5	  16
   5	  18
   5	  19
   5	  22
   5	  26
   5	  27
   5	  28
   5	  30
   5	  33
   5	  38
   5	  42
   5	  45
   5	  48
   5	  53
   5	  54
   5	  55
   5	  57
   5	  58
   5	  59
   6	   7
   6	  11
   6	  13
   6	  16
   6	  18
   6	  21
   6	  22
   6	  28
   6	  32
   6	  33
   6	  38
   6	  40
   6	  41
   6	  43
   6	  44
   6	  48
   6	  52
   6	  53
   6	  54
   6	  56
   7	   8
   7	   9
   7	  11
   7	  13
   7	  15
   7	  16
   7	  23
   7	  25
   7	  27
   7	  28
   7	  30
   7	  35
   7	  36
   7	  40
   7	  42
   7	  47
   7	  52
   7	  57
   8	   9
   8	  11
   8	  12
   8	  13
   8	  14
   8	  17
   8	  21
   8	  23
   8	  24
   8	  25
   8	  27
   8	  34
   8	  36
   8	  37
   8	  39
   8	  40
   8	  49
   8	  52
   8	  54
   8	  55
   9	  14
   9	  15
   9	  16
   9	  18
   9	  19
   9	  22
   9	  25
   9	  29
   9	  31
   9	  32
   9	  34
   9	  35
   9	  37
   9	  38
   9	  39
   9	  41
   9	  42
   9	  44
   9	  45
   9	  48
   9	  50
   9	  51
   9	  55
   9	  58
  10	  11
  10	  12
  10	  14
  10	  16
  10	  18
  10	  20
  10	  24
  10	  26
  10	  27
  10	  29
  10	  30
  10	  40
  10	  47
  10	  49
  10	  50
  10	  53
  10	  55
  11	  13
  11	  15
  11	  16
  11	  18
  11	  23
  11	  24
  11	  25
  11	  27
  11	  30
  11	  39
  11	  41
  11	  45
  11	  46
  11	  48
  11	  53
  11	  54
  11	  56
  11	  58
  12	  13
  12	  16
  12	  17
  12	  23
  12	  29
  12	  31
  12	  33
  12	  34
  12	  42
  12	  43
  12	  45
  12	  52
  12	  53
  12	  57
  12	  58
  12	  59
  13	  16
  13	  17
  13	  20
  13	  28
  13	  29
  13	  32
  13	  33
  13	  38
  13	  47
  13	  48
  13	  50
  13	  52
  13	  56
  13	  59
  14	  17
  14	  29
  14	  30
  14	  31
  14	  32
  14	  33
  14	  34
  14	  39
  14	  40
  14	  42
  14	  43
  14	  44
  14	  50
  14	  51
  14	  55
  14	  57
  15	  17
  15	  18
  15	  21
  15	  22
  15	  24
  15	  25
  15	  28
  15	  31
  15	  33
  15	  38
  15	  39
  15	  41
  15	  44
  15	  45
  15	  50
  15	  53
  15	  55
  15	  58
  16	  18
  16	  20
  16	  21
  16	  22
  16	  23
  16	  25
  16	  26
  16	  33
  16	  34
  16	  35
  16	  37
  16	  42
  16	  43
  16	  47
  16	  49
  16	  50
  16	  51
  16	  56
  16	  57
  16	  58
  17	  19
  17	  20
  17	  22
  17	  26
  17	  35
  17	  37
  17	  39
  17	  41
  17	  42
  17	  44
  17	  46
  17	  48
  17	  51
  17	  54
  17	  56
  17	  57
  18	  22
  18	  32
  18	  33
  18	  34
  18	  36
  18	  37
  18	  39
  18	  40
  18	  41
  18	  46
  18	  47
  18	  49
  18	  52
  18	  56
  19	  20
  19	  23
  19	  24
  19	  25
  19	  26
  19	  27
  19	  32
  19	  33
  19	  36
  19	  39
  19	  40
  19	  44
  19	  48
  19	  51
  19	  52
  19	  53
  19	  57
  19	  59
  20	  25
  20	  28
  20	  31
  20	  32
  20	  36
  20	  40
  20	  46
  20	  47
  20	  52
  20	  53
  20	  54
  20	  55
  20	  58
  21	  22
  21	  25
  21	  32
  21	  35
  21	  36
  21	  37
  21	  41
  21	  44
  21	  46
  21	  49
  21	  50
  21	  51
  21	  54
  21	  55
  21	  56
  22	  24
  22	  25
  22	  31
  22	  33
  22	  36
  22	  41
  22	  42
  22	  44
  22	  45
  22	  47
  22	  49
  22	  52
  22	  54
  22	  55
  22	  57
  22	  58
  23	  30
  23	  31
  23	  35
  23	  36
  23	  39
  23	  41
  23	  44
  23	  45
  23	  46
  23	  47
  23	  48
  23	  49
  23	  50
  23	  54
  23	  55
  23	  56
  23	  58
  24	  34
  24	  37
  24	  38
  24	  39
  24	  41
  24	  42
  24	  44
  24	  47
  24	  52
  24	  53
  24	  54
  24	  55
  24	  56
  24	  58
  25	  29
  25	  31
  25	  34
  25	  38
  25	  43
  25	  44
  25	  46
  25	  50
  25	  51
  25	  52
  25	  54
  25	  55
  25	  57
  25	  58
  26	  27
  26	  30
  26	  31
  26	  32
  26	  35
  26	  36
  26	  41
  26	  42
  26	  43
  26	  44
  26	  48
  26	  49
  26	  50
  26	  51
  26	  53
  26	  54
  26	  57
  26	  58
  27	  28
  27	  30
  27	  39
  27	  42
  27	  43
  27	  51
  27	  52
  27	  55
  27	  57
  27	  58
  27	  59
  28	  31
  28	  32
  28	  34
  28	  35
  28	  37
  28	  48
  28	  51
  28	  54
  28	  55
  28	  58
  28	  59
  29	  30
  29	  32
  29	  35
  29	  36
  29	  39
  29	  42
  29	  45
  29	  46
  29	  49
  29	  57
  30	  31
  30	  34
  30	  35
  30	  42
  30	  46
  30	  48
  30	  51
  30	  52
  30	  56
  30	  57
  30	  59
  31	  34
  31	  38
  31	  40
  31	  41
  31	  42
  31	  44
  31	  46
  31	  49
  31	  50
  31	  52
  31	  53
  31	  55
  31	  56
  31	  59
  32	  35
  32	  36
  32	  47
  32	  51
  32	  54
  32	  56
  33	  34
  33	  36
  33	  37
  33	  38
  33	  43
  33	  46
  33	  48
  33	  49
  33	  50
  33	  51
  33	  52
  33	  59
  34	  36
  34	  37
  34	  39
  34	  46
  34	  47
  34	  49
  34	  51
  34	  54
  34	  56
  34	  57
  34	  59
  35	  36
  35	  37
  35	  38
  35	  39
  35	  43
  35	  45
  35	  47
  35	  48
  35	  49
  35	  50
  35	  52
  35	  56
  35	  58
  36	  38
  36	  39
  36	  40
  36	  41
  36	  43
  36	  44
  36	  45
  36	  49
  36	  51
  36	  54
  36	  55
  36	  57
  37	  38
  37	  40
  37	  41
  37	  44
  37	  45
  37	  51
  37	  52
  37	  53
  37	  55
  37	  57
  37	  59
  38	  39
  38	  40
  38	  41
  38	  46
  38	  49
  38	  57
  38	  59
  39	  40
  39	  43
  39	  46
  39	  48
  39	  49
  39	  50
  39	  53
  39	  55
  39	  58
  39	  59
  40	  41
  40	  43
  40	  45
  40	  47
  40	  54
  40	  57
  40	  58
  41	  45
  41	  46
  41	  48
  41	  49
  41	  51
  41	  52
  41	  53
  41	  57
  42	  43
  42	  48
  42	  51
  42	  55
  42	  58
  43	  44
  43	  46
  43	  47
  43	  48
  43	  50
  43	  52
  43	  54
  43	  55
  43	  57
  43	  59
  44	  45
  44	  46
  44	  47
  44	  50
  44	  52
  44	  56
  44	  58
  44	  59
  45	  46
  45	  47
  45	  53
  45	  56
  46	  52
  46	  53
  46	  55
  46	  56
  46	  57
  46	  59
  47	  51
  47	  53
  47	  57
  48	  52
  48	  53
  48	  55
  48	  56
  48	  57
  48	  59
  49	  50
  49	  51
  49	  54
  49	  55
  49	  56
  50	  56
  50	  57
  50	  58
  50	  59
  51	  54
  51	  55
  51	  57
  52	  54
  53	  54
  53	  55
  54	  55
  54	  58
  55	  58
  56	  57
  56	  58
  56	  59
  58	  59
;
